4 
5  25 41 56 
6  11 27 37 42 47 52 57 
7  02 07 12 17 22 27 32 37 42 47 52 57 
8  02 07 12 17 22 27 32 37 42 47 52 57 
9  02 07 12 17 22 27 32 37 42 47 52 58 
10  04 12 19 27 34 42 49 57 
11  04 12 19 27 34 42 49 57 
12  04 12 19 27 34 42 49 57 
13  04 14 21 29 36 43 51 59 
14  06 14 21 29 36 43 51 59 
15  06 14 19 24 28 34 39 44 49 54 58 
16  04 09 13 19 24 28 34 39 43 49 54 58 
17  04 09 13 19 24 28 34 39 43 49 54 58 
18  04 09 14 19 24 29 34 39 44 49 54 59 
19  04 08 14 20 27 34 42 49 57 
20  04 12 18 25 33 41 48 59 
21  14 21 29 44 59 
22  14 24 39 54 
23  10 24 
0 
